 vasp.5.4.4.18Apr17-6-g9f103f2a35 (build Feb 28 2020 14:15:47) complex

 executed on             LinuxIFC date 2022.08.06  16:06:46

 INCAR:
 POTCAR:    PAW P 26Mar2009
 POTCAR:    PAW S 27Mar2009
 POTCAR:    PAW Li_sv 10Sep2004
 POTCAR:    PAW P 26Mar2009
   VRHFIN =P : s2p3

   TITEL  = PAW P 26Mar2009
   POMASS =   30.974; ZVAL   =    5.000    mass and valenz
   ENMAX  =  255.155; ENMIN  =  191.366 eV

 POTCAR:    PAW S 27Mar2009
   VRHFIN =S : s2p4

   TITEL  = PAW S 27Mar2009
   POMASS =   32.066; ZVAL   =    6.000    mass and valenz
   ENMAX  =  258.602; ENMIN  =  193.952 eV

 POTCAR:    PAW Li_sv 10Sep2004
   VRHFIN =Li: 1s2s

   TITEL  = PAW Li_sv 10Sep2004
   POMASS =    7.010; ZVAL   =    3.000    mass and valenz
   ENMAX  =  498.387; ENMIN  =  373.790 eV

 Optimization of the real space projectors (new method)

 maximal supplied QI-value         = 19.84
 optimisation between [QCUT,QGAM] = [ 10.32, 20.83] = [ 29.81,121.55] Ry
 Optimized for a Real-space Cutoff    1.39 Angstroem

   l    n(q)    QCUT    max X(q) W(low)/X(q) W(high)/X(q)  e(spline)
   0      9    10.318   158.476    0.64E-04    0.80E-04    0.60E-07
   0      9    10.318   128.097    0.63E-04    0.79E-04    0.60E-07
   1      8    10.318    73.217    0.18E-03    0.19E-03    0.20E-06
   1      8    10.318    48.248    0.18E-03    0.19E-03    0.19E-06
 Optimization of the real space projectors (new method)

[...]

   l    n(q)    QCUT    max X(q) W(low)/X(q) W(high)/X(q)  e(spline)
   0      9    10.318   180.455    0.73E-04    0.81E-04    0.62E-07
   0      9    10.318   157.733    0.72E-04    0.81E-04    0.62E-07
   1      8    10.318    66.201    0.18E-03    0.20E-03    0.20E-06
   1      8    10.318    49.617    0.18E-03    0.20E-03    0.20E-06
 Optimization of the real space projectors (new method)

 maximal supplied QI-value         = 22.11
 optimisation between [QCUT,QGAM] = [ 10.39, 20.78] = [ 30.24,120.96] Ry
 Optimized for a Real-space Cutoff    1.20 Angstroem

   l    n(q)    QCUT    max X(q) W(low)/X(q) W(high)/X(q)  e(spline)
   0      7    10.392    10.443    0.77E-04    0.41E-05    0.30E-07
   0      7    10.392     8.514    0.20E-03    0.36E-04    0.67E-07
   1      7    10.392     5.406    0.20E-03    0.20E-03    0.12E-06
  PAW P 26Mar2009                       :
  PAW S 27Mar2009                       :
  PAW Li_sv 10Sep2004                   :

 POSCAR: Good luck
  positions in cartesian coordinates
 exchange correlation table for  LEXCH =        2
   RHO(1)=    0.500       N(1)  =     2000
   RHO(2)=  100.500       N(2)  =     4000

 ion  position               nearest neighbor table
   1  0.000  0.150  0.830-   9 2.00   6 2.00   3 2.00   7 2.00
   2  0.500  0.850  0.330-  10 2.00   5 2.00   4 2.00   8 2.00
   3  0.236  0.179  0.666-   1 2.00  10 2.40
   4  0.264  0.821  0.166-   2 2.00   9 2.40
   5  0.736  0.821  0.166-   2 2.00   9 2.40
   6  0.764  0.179  0.666-   1 2.00  10 2.40
   7  0.000  0.353  0.035-  11 1.97   1 2.00  14 2.49  15 2.49
   8  0.500  0.647  0.535-  12 1.97   2 2.00  16 2.49  13 2.49
   9  0.000  0.889  0.953-   1 2.00  11 2.27   5 2.40   4 2.40  13 2.62  16 2.62
  10  0.500  0.111  0.453-   2 2.00  12 2.27   6 2.40   3 2.40  15 2.62  14 2.62
  11  0.000  0.576  0.857-   7 1.97   9 2.27  13 2.46  16 2.46
  12  0.500  0.424  0.357-   8 1.97  10 2.27  15 2.46  14 2.46
  13  0.187  0.786  0.641-  11 2.46   8 2.49  16 2.60   9 2.62
  14  0.313  0.214  0.141-  12 2.46   7 2.49  15 2.60  10 2.62
  15  0.687  0.214  0.141-  12 2.46   7 2.49  14 2.60  10 2.62
  16  0.813  0.786  0.641-  11 2.46   8 2.49  13 2.60   9 2.62

  LATTYP: Found a simple cubic cell.
 ALAT       =     6.9336127435

  Lattice vectors:

 A1 = (   6.9336127435,   0.0000000000,   0.0000000000)
 A2 = (   0.0000000000,   6.9336127435,   0.0000000000)
 A3 = (   0.0000000000,   0.0000000000,   6.9336127435)

Analysis of symmetry for initial positions (statically):
 Subroutine PRICEL returns:
 Original cell was already a primitive cell.

 Routine SETGRP: Setting up the symmetry group for a
 simple cubic supercell.

 Subroutine GETGRP returns: Found  4 space group operations
 (whereof  2 operations were pure point group operations)
 out of a pool of 48 trial point group operations.

The static configuration has the point symmetry C_1h.
 The point group associated with its full space group is C_2v.

Analysis of symmetry for dynamics (positions and initial velocities):
 Subroutine PRICEL returns:
 Original cell was already a primitive cell.

 Routine SETGRP: Setting up the symmetry group for a
 simple cubic supercell.

 Subroutine GETGRP returns: Found  4 space group operations
 (whereof  2 operations were pure point group operations)
 out of a pool of 48 trial point group operations.

The dynamic configuration has the point symmetry C_1h.
 The point group associated with its full space group is C_2v.

 Subroutine INISYM returns: Found  4 space group operations
 (whereof  2 operations are pure point group operations),
 and found     1 'primitive' translations

 KPOINTS: Automatic mesh

Automatic generation of k-mesh.
Space group operators:
 irot       det(A)        alpha          n_x          n_y          n_z        tau_x        tau_y        tau_z
    1     1.000000     0.000000     1.000000     0.000000     0.000000     0.000000     0.000000     0.000000
    2    -1.000000   180.000000     1.000000     0.000000     0.000000     0.000000     0.000000     0.000000
    3     1.000000   180.000000     0.000000     0.000000     1.000000     0.500000     0.000000     0.500000
    4    -1.000000   180.000000     0.000000     1.000000     0.000000     0.500000     0.000000     0.500000

 Subroutine IBZKPT returns following result:

 Found      8 irreducible k-points:

 Following reciprocal coordinates:
            Coordinates               Weight
  0.000000  0.000000  0.000000      1.000000
  0.333333  0.000000  0.000000      2.000000
  0.000000  0.333333  0.000000      2.000000
  0.333333  0.333333  0.000000      4.000000
  0.000000  0.000000  0.333333      2.000000
  0.333333  0.000000  0.333333      4.000000
  0.000000  0.333333  0.333333      4.000000
  0.333333  0.333333  0.333333      8.000000

 Following cartesian coordinates:
            Coordinates               Weight
  0.000000  0.000000  0.000000      1.000000
  0.048075  0.000000  0.000000      2.000000
  0.000000  0.048075  0.000000      2.000000
  0.048075  0.048075  0.000000      4.000000
  0.000000  0.000000  0.048075      2.000000
  0.048075  0.000000  0.048075      4.000000
  0.000000  0.048075  0.048075      4.000000
  0.048075  0.048075  0.048075      8.000000

 TETIRR: Found     70 inequivalent tetrahedra from      162

 SYSTEM =  unknown system
 POSCAR =  Good luck

 Startparameter for this run:
   NWRITE =      2    write-flag & timer
   PREC   = accura    normal or accurate (medium, high low for compatibility)
   ISTART =      0    job   : 0-new  1-cont  2-samecut
   ICHARG =      2    charge: 1-file 2-atom 10-const
   ISPIN  =      1    spin polarized calculation?
   LNONCOLLINEAR =      F non collinear calculations
   LSORBIT =      F    spin-orbit coupling
   INIWAV =      1    electr: 0-lowe 1-rand  2-diag
   LASPH  =      F    aspherical Exc in radial PAW
   METAGGA=      F    non-selfconsistent MetaGGA calc.

 Electronic Relaxation 1
   ENCUT  =  420.0 eV  30.87 Ry    5.56 a.u.  11.59 11.59 11.59*2*pi/ulx,y,z
   ENINI  =  420.0     initial cutoff
   ENAUG  =  628.9 eV  augmentation charge cutoff
   NELM   =    100;   NELMIN=  2; NELMDL= -5     # of ELM steps
   EDIFF  = 0.2E-04   stopping-criterion for ELM
   LREAL  =      T    real-space projection
   NLSPLINE    = F    spline interpolate recip. space projectors
   LCOMPAT=      F    compatible to vasp.4.4
   GGA_COMPAT  = T    GGA compatible to vasp.4.4-vasp.4.6
   LMAXPAW     = -100 max onsite density
   LMAXMIX     =    2 max onsite mixed and CHGCAR
   VOSKOWN=      0    Vosko Wilk Nusair interpolation
   ROPT   =   -0.00025  -0.00025  -0.00025
 Ionic relaxation
   EDIFFG = 0.2E-03   stopping-criterion for IOM
   NSW    =      0    number of steps for IOM
   NBLOCK =      1;   KBLOCK =      1    inner block; outer block
   IBRION =     -1    ionic relax: 0-MD 1-quasi-New 2-CG
   NFREE  =      1    steps in history (QN), initial steepest desc. (CG)
   ISIF   =      7    stress and relaxation
   IWAVPR =     10    prediction:  0-non 1-charg 2-wave 3-comb
   ISYM   =      2    0-nonsym 1-usesym 2-fastsym
   LCORR  =      T    Harris-Foulkes like correction to forces

   POTIM  = 0.5000    time-step for ionic-motion
   TEIN   =    0.0    initial temperature
   TEBEG  =    0.0;   TEEND  =   0.0 temperature during run
   SMASS  =  -3.00    Nose mass-parameter (am)
   estimated Nose-frequenzy (Omega)   =  0.10E-29 period in steps =****** mass=  -0.110E-26a.u.
   SCALEE = 1.0000    scale energy and forces
   NPACO  =    256;   APACO  = 16.0  distance and # of slots for P.C.
   PSTRESS=    0.0 pullay stress

  Mass of Ions in am
   POMASS =  30.97 32.07  7.01
  Ionic Valenz
   ZVAL   =   5.00  6.00  3.00
  Atomic Wigner-Seitz radii
  virtual crystal weights
   VCA    =   1.00  1.00  1.00
   NELECT =      76.0000    total number of electrons
   NUPDOWN=      -1.0000    fix difference up-down

 DOS related values:
   EMIN   =  10.00;   EMAX   =-10.00  energy-range for DOS
   EFERMI =   0.00
   ISMEAR =    -5;   SIGMA  =   0.20  broadening in eV -4-tet -1-fermi 0-gaus

 Electronic relaxation 2 (details)
   IALGO  =     68    algorithm
   LDIAG  =      T    sub-space diagonalisation (order eigenvalues)
   LSUBROT=      F    optimize rotation matrix (better conditioning)
   TURBO    =      0    0=normal 1=particle mesh
   IRESTART =      0    0=no restart 2=restart with 2 vectors
   NREBOOT  =      0    no. of reboots
   NMIN     =      0    reboot dimension
   EREF     =   0.00    reference energy to select bands
   IMIX   =      4    mixing-type and parameters
     AMIX     =   0.40;   BMIX     =  1.00
     AMIX_MAG =   1.60;   BMIX_MAG =  1.00
     AMIN     =   0.10
     WC   =   100.;   INIMIX=   1;  MIXPRE=   1;  MAXMIX= -45

 Intra band minimization:
   WEIMIN = 0.0000     energy-eigenvalue tresh-hold
   EBREAK =  0.10E-06  absolut break condition
   DEPER  =   0.30     relativ break condition

   TIME   =   0.40     timestep for ELM

  volume/ion in A,a.u.               =      20.83       140.59
  Fermi-wavevector in a.u.,A,eV,Ry     =   1.000122  1.889957 13.609154  1.000245
  Thomas-Fermi vector in A             =   2.132458

 Write flags
   LWAVE        =      F    write WAVECAR
   LDOWNSAMPLE  =      F    k-point downsampling of WAVECAR
   LCHARG       =      F    write CHGCAR
   LVTOT        =      F    write LOCPOT, total local potential
   LVHAR        =      F    write LOCPOT, Hartree potential only
   LELF         =      F    write electronic localiz. function (ELF)
   LORBIT       =      0    0 simple, 1 ext, 2 COOP (PROOUT), +10 PAW based schemes

 Dipole corrections
   LMONO  =      F    monopole corrections only (constant potential shift)
   LDIPOL =      F    correct potential (dipole corrections)
   IDIPOL =      0    1-x, 2-y, 3-z, 4-all directions
[...]
   0.00000000  0.00000000  0.00000000       0.037
   0.04807499  0.00000000  0.00000000       0.074
   0.00000000  0.04807499  0.00000000       0.074
   0.04807499  0.04807499  0.00000000       0.148
   0.00000000  0.00000000  0.04807499       0.074
   0.04807499  0.00000000  0.04807499       0.148
   0.00000000  0.04807499  0.04807499       0.148
   0.04807499  0.04807499  0.04807499       0.296

 k-points in reciprocal lattice and weights: Automatic mesh
   0.00000000  0.00000000  0.00000000       0.037
   0.33333333  0.00000000  0.00000000       0.074
   0.00000000  0.33333333  0.00000000       0.074
   0.33333333  0.33333333  0.00000000       0.148
   0.00000000  0.00000000  0.33333333       0.074
   0.33333333  0.00000000  0.33333333       0.148
   0.00000000  0.33333333  0.33333333       0.148
   0.33333333  0.33333333  0.33333333       0.296

 position of ions in fractional coordinates (direct lattice)
   0.00000000  0.14963836  0.82979114
   0.50000000  0.85036164  0.32979114
   0.23551848  0.17855715  0.66578450
   0.26448152  0.82144285  0.16578450
   0.73551848  0.82144285  0.16578450
   0.76448152  0.17855715  0.66578450
   0.00000000  0.35265998  0.03469514
   0.50000000  0.64734002  0.53469514
   0.00000000  0.88877914  0.95290044
   0.50000000  0.11122086  0.45290044
   0.00000000  0.57555796  0.85747724
   0.50000000  0.42444204  0.35747724
   0.18731108  0.78640529  0.64130742
   0.31268892  0.21359471  0.14130742
   0.68731108  0.21359471  0.14130742
   0.81268892  0.78640529  0.64130742

 position of ions in cartesian coordinates  (Angst):
   0.00000000  1.03753442  5.75345045
   3.46680637  5.89607833  2.28664408
   1.63299392  1.23804616  4.61629188
   1.83381245  5.69556659  1.14948550
   5.09980030  5.69556659  1.14948550
   5.30061882  1.23804616  4.61629188
   0.00000000  2.44520776  0.24056270
   3.46680637  4.48840499  3.70736907
   0.00000000  6.16245035  6.60704260
   3.46680637  0.77116240  3.14023623
   0.00000000  3.99069598  5.94541510
   3.46680637  2.94291676  2.47860872
   1.29874250  5.45262977  4.44657727
   2.16806387  1.48098297  0.97977090
   4.76554888  1.48098297  0.97977090
   5.63487024  5.45262977  4.44657727

 k-point  1 :   0.0000 0.0000 0.0000  plane waves:    6619
 k-point  2 :   0.3333 0.0000 0.0000  plane waves:    6515
 k-point  3 :   0.0000 0.3333 0.0000  plane waves:    6515
 k-point  4 :   0.3333 0.3333 0.0000  plane waves:    6512
 k-point  5 :   0.0000 0.0000 0.3333  plane waves:    6515
 k-point  6 :   0.3333 0.0000 0.3333  plane waves:    6512
 k-point  7 :   0.0000 0.3333 0.3333  plane waves:    6512
 k-point  8 :   0.3333 0.3333 0.3333  plane waves:    6497

 maximum and minimum number of plane-waves per node :       427      395

 maximum number of plane-waves:      6619
 maximum index in each direction:
   IXMAX=   11   IYMAX=   11   IZMAX=   11
   IXMIN=  -11   IYMIN=  -11   IZMIN=  -11

 real space projection operators:
  max/ min on nodes  :        179.97        171.43

 parallel 3D FFT for wavefunctions:
    minimum data exchange during FFTs selected (reduces bandwidth)
 parallel 3D FFT for charge:
    minimum data exchange during FFTs selected (reduces bandwidth)

 Broyden mixing: mesh for mixing (old mesh)
   NGX = 23   NGY = 23   NGZ = 23
  (NGX  = 96   NGY  = 96   NGZ  = 96)
  gives a total of  12167 points

 initial charge density was supplied:
 charge density of overlapping atoms calculated
 number of electron      76.0000000 magnetization
 keeping initial charge density in first step

 Maximum index for non-local projection operator          287
 Maximum index for augmentation-charges          570 (set IRDMAX)

 First call to EWALD:  gamma=   0.256
 Maximum number of real-space cells 3x 3x 3
 Maximum number of reciprocal cells 3x 3x 3

--------------------------------------- Iteration      1(   1)  ---------------------------------------

 BZINTS: Fermi energy: 13.624433; 76.000000 electrons
         Band energy:-206.704481;  BLOECHL correction: -0.041728

 eigenvalue-minimisations  :   768
 total energy-change (2. order) : 0.5217085E+03  (-0.2818634E+04)
 number of electron      76.0000000 magnetization
 augmentation part       76.0000000 magnetization

 Free energy of the ion-electron system (eV)
  alpha Z        PSCENC =        59.19887464
  Ewald energy   TEWEN  =     -2279.36731658
  -Hartree energ DENC   =      -955.76825444
  -exchange      EXHF   =         0.00000000
  -V(xc)+E(xc)   XCENC  =       182.15958962
  PAW double counting   =      2494.22442938    -2541.12215007
  entropy T*S    EENTRO =         0.00000000
  eigenvalues    EBANDS =      -206.70448075
  atomic energy  EATOM  =      3769.08782378
  Solvation  Ediel_sol  =         0.00000000
  free energy    TOTEN  =       521.70851558 eV

  energy without entropy =      521.70851558  energy(sigma->0) =      521.70851558

[...]

 eigenvalue-minimisations  :   896
 total energy-change (2. order) :-0.5095072E+03  (-0.4866073E+03)
 number of electron      76.0000000 magnetization
 augmentation part       76.0000000 magnetization

[...]

 Broyden mixing:
  rms(total) = 0.32119E+01    rms(broyden)= 0.32114E+01
  rms(prec ) = 0.34430E+01
  weight for this iteration     100.00

[...]

 eigenvalues of (default mixing * dielectric matrix)
  average eigenvalue GAMMA=   2.4838
  2.4838

[...]

 eigenvalue-minimisations  :  1338
 total energy-change (2. order) : 0.1400766E-02  (-0.7825093E-02)
 number of electron      76.0000027 magnetization
 augmentation part       -1.9213127 magnetization

[...]

 Broyden mixing:
  rms(total) = 0.43682E-03    rms(broyden)= 0.42045E-03
  rms(prec ) = 0.52641E-03
  weight for this iteration     100.00

 eigenvalues of (default mixing * dielectric matrix)
  average eigenvalue GAMMA=   1.6776
  3.9266  2.7074  2.2961  1.6803  1.5980  1.0828  1.0828  0.8677  0.8677  0.6666

[...]

--------------------------------------- Iteration      1(  16)  ---------------------------------------

[...]

 eigenvalue-minimisations  :   700
 total energy-change (2. order) :-0.2337143E-05  (-0.4129723E-05)
 number of electron      76.0000027 magnetization
 augmentation part       -1.9433393 magnetization

 Free energy of the ion-electron system (eV)
  alpha Z        PSCENC =        59.19887464
  Ewald energy   TEWEN  =     -2279.36731658
  -Hartree energ DENC   =     -1009.82848688
  -exchange      EXHF   =         0.00000000
  -V(xc)+E(xc)   XCENC  =       186.18433983
  PAW double counting   =      8944.13172020    -8994.06847475
  entropy T*S    EENTRO =         0.00000000
  eigenvalues    EBANDS =      -742.07877265
  atomic energy  EATOM  =      3769.08782378
  Solvation  Ediel_sol  =         0.00000000
  free energy    TOTEN  =       -66.74029241 eV

  energy without entropy =      -66.74029241  energy(sigma->0) =      -66.74029241

 average (electrostatic) potential at core
  the test charge radii are     0.9587  0.9698  0.7079
  (the norm of the test charge is              1.0000)
       1 -88.2053       2 -88.2053       3 -88.5820       4 -88.5820       5 -88.5820
       6 -88.5820       7 -89.2815       8 -89.2815       9 -89.5595      10 -89.5595
      11 -66.0639      12 -66.0639      13 -66.2685      14 -66.2685      15 -66.2685
      16 -66.2685

 E-fermi :   3.0823     XC(G=0):  -8.2891     alpha+bet : -9.0605

 k-point     1 :       0.0000    0.0000    0.0000
  band No.  band energies     occupation
      1     -43.4157      2.00000
      2     -43.4155      2.00000
      3     -43.3934      2.00000
      4     -43.3934      2.00000
      5     -43.2399      2.00000
      6     -43.2397      2.00000
      7     -13.7215      2.00000
      8     -13.2606      2.00000
      9     -11.5211      2.00000
     10     -10.9996      2.00000
     11     -10.3439      2.00000
     12      -9.9194      2.00000
     13      -9.6808      2.00000
     14      -9.4786      2.00000
     15      -7.1550      2.00000
     16      -4.7122      2.00000
     17      -4.1219      2.00000
     18      -4.1045      2.00000
     19      -3.3025      2.00000
     20      -2.8208      2.00000
     21      -2.6504      2.00000
     22      -2.3163      2.00000
     23      -1.5446      2.00000
     24      -0.9107      2.00000
     25      -0.6262      2.00000
     26      -0.5418      2.00000
     27      -0.3949      2.00000
     28      -0.3900      2.00000
     29       0.0793      2.00000
     30       0.4359      2.00000
     31       0.6267      2.00000
     32       0.8945      2.00000
     33       1.3410      2.00000
     34       1.5292      2.00000
     35       1.6822      2.00000
     36       2.1269      2.00000
     37       2.5513      2.00000
     38       3.0143      2.00000
     39       3.4213      0.00000
     40       4.3371      0.00000
     41       4.5442      0.00000
     42       4.8710      0.00000
     43       4.9520      0.00000
     44       5.7746      0.00000
     45       5.9117      0.00000
     46       6.1142      0.00000
     47       6.7136      0.00000
     48       6.9001      0.00000

[...]

 k-point     8 :       0.3333    0.3333    0.3333
  band No.  band energies     occupation
      1     -43.4155      2.00000
      2     -43.4154      2.00000
      3     -43.3933      2.00000
      4     -43.3933      2.00000
      5     -43.2397      2.00000
      6     -43.2397      2.00000
      7     -13.5500      2.00000
      8     -13.4395      2.00000
      9     -11.3773      2.00000
     10     -11.2383      2.00000
     11     -10.3247      2.00000
     12     -10.2390      2.00000
     13      -9.4817      2.00000
     14      -9.3124      2.00000
     15      -6.3226      2.00000
     16      -5.8047      2.00000
     17      -3.9726      2.00000
     18      -3.9095      2.00000
     19      -3.4077      2.00000
     20      -3.2553      2.00000
     21      -2.3379      2.00000
     22      -2.0840      2.00000
     23      -1.4578      2.00000
     24      -1.0111      2.00000
     25      -0.7032      2.00000
     26      -0.6400      2.00000
     27      -0.5085      2.00000
     28      -0.4300      2.00000
     29       0.1270      2.00000
     30       0.4668      2.00000
     31       0.7058      2.00000
     32       0.9804      2.00000
     33       1.1840      2.00000
     34       1.3614      2.00000
     35       2.0406      2.00000
     36       2.2098      2.00000
     37       2.3346      2.00000
     38       2.5151      2.00000
     39       3.9009      0.00000
     40       4.0545      0.00000
     41       5.0722      0.00000
     42       5.3674      0.00000
     43       5.5302      0.00000
     44       5.6084      0.00000
     45       5.9515      0.00000
     46       6.2527      0.00000
     47       6.5435      0.00000
     48       6.7274      0.00000

 soft charge-density along one line, spin component           1
         0         1         2         3         4         5         6         7         8         9
 total charge-density along one line

------------------------ aborting loop because EDIFF is reached ----------------------------------------

  FORCE on cell =-STRESS in cart. coord.  units (eV):
  Direction    XX          YY          ZZ          XY          YZ          ZX
  Alpha Z    59.19887    59.19887    59.19887
  Ewald    -746.85096  -686.28634  -846.23620     0.00000     0.00000     0.00000
  Hartree   347.02009   368.75618   294.03569    -0.00000    -0.00000    -0.00000
  E(xc)    -278.35730  -278.27108  -278.11559    -0.00000    -0.00000     0.00000
  Local    -944.97597 -1019.88986  -784.68973    -0.00000     0.00000    -0.00000
  n-local   612.84989   616.60665   607.28957     0.01285     0.01497    -0.81773
  augment   -48.65014   -47.09926   -47.37329    -0.00000     0.00000     0.00000
  Kinetic  1022.90159   991.70232  1011.42790    -0.03884    -0.06398    -1.32371
  Fock        0.00000     0.00000     0.00000     0.00000     0.00000     0.00000
  Total      23.13609     4.71749    15.53723     0.00000     0.00000     0.00000
  in kB     111.20435    22.67477    74.68018     0.00000     0.00000     0.00000

 VOLUME and BASIS-vectors are now :
  energy-cutoff  :      420.00
  volume of cell :      333.33
      direct lattice vectors                 reciprocal lattice vectors
     6.933612744  0.000000000  0.000000000     0.144224957  0.000000000  0.000000000
     0.000000000  6.933612744  0.000000000     0.000000000  0.144224957  0.000000000
     0.000000000  0.000000000  6.933612744     0.000000000  0.000000000  0.144224957

  length of vectors
     6.933612744  6.933612744  6.933612744     0.144224957  0.144224957  0.144224957

 FORCES acting on ions
    electron-ion (+dipol)            ewald-force                    non-local-force                 convergence-correction
   0.146E-09 -.247E+02 0.891E+01   0.177E-08 0.272E+02 -.146E+02   0.000E+00 -.205E+01 0.445E+01   -.553E-10 0.962E-03 0.154E-03
   -.114E-07 0.247E+02 0.891E+01   -.232E-08 -.272E+02 -.146E+02   0.000E+00 0.205E+01 0.445E+01   0.558E-10 -.962E-03 0.154E-03
   -.434E+02 -.627E+02 0.296E+02   0.432E+02 0.613E+02 -.302E+02   -.333E+00 0.104E+01 0.151E+01   -.763E-03 0.393E-03 0.436E-03
   0.434E+02 0.627E+02 0.296E+02   -.432E+02 -.613E+02 -.302E+02   0.333E+00 -.104E+01 0.151E+01   0.763E-03 -.393E-03 0.436E-03
   -.434E+02 0.627E+02 0.296E+02   0.432E+02 -.613E+02 -.302E+02   -.333E+00 -.104E+01 0.151E+01   -.763E-03 -.393E-03 0.436E-03
   0.434E+02 -.627E+02 0.296E+02   -.432E+02 0.613E+02 -.302E+02   0.333E+00 0.104E+01 0.151E+01   0.763E-03 0.393E-03 0.436E-03
   0.546E-10 -.745E+02 -.110E+03   0.213E-08 0.761E+02 0.110E+03   0.000E+00 -.262E+01 0.378E+01   -.677E-10 0.414E-03 -.213E-02
   -.324E-07 0.745E+02 -.110E+03   -.472E-08 -.761E+02 0.110E+03   0.000E+00 0.262E+01 0.378E+01   0.678E-10 -.414E-03 -.213E-02
   0.674E-09 0.650E+02 -.193E+02   0.565E-08 -.674E+02 0.206E+02   0.000E+00 0.940E+00 -.416E+01   -.689E-10 0.958E-03 0.525E-03
   -.307E-07 -.650E+02 -.193E+02   -.608E-08 0.674E+02 0.206E+02   0.000E+00 -.940E+00 -.416E+01   0.692E-10 -.958E-03 0.525E-03
   0.105E-09 0.400E+00 0.359E+02   0.129E-08 -.162E+01 -.323E+02   0.000E+00 0.223E+01 -.420E+01   -.331E-10 -.100E-02 0.123E-02
   -.284E-07 -.400E+00 0.359E+02   -.144E-08 0.162E+01 -.323E+02   0.000E+00 -.223E+01 -.420E+01   0.333E-10 0.100E-02 0.123E-02
   0.706E+01 0.347E+02 0.123E+02   -.467E+01 -.325E+02 -.116E+02   -.121E+01 -.121E+01 -.943E+00   0.314E-03 0.197E-03 0.144E-03
   -.706E+01 -.347E+02 0.123E+02   0.467E+01 0.325E+02 -.116E+02   0.121E+01 0.121E+01 -.943E+00   -.314E-03 -.197E-03 0.144E-03
   0.706E+01 -.347E+02 0.123E+02   -.467E+01 0.325E+02 -.116E+02   -.121E+01 0.121E+01 -.943E+00   0.314E-03 -.197E-03 0.144E-03
   -.706E+01 0.347E+02 0.123E+02   0.467E+01 -.325E+02 -.116E+02   0.121E+01 -.121E+01 -.943E+00   -.314E-03 0.197E-03 0.144E-03
   -.151E-06 0.105E-06 -.200E+01   0.293E-13 -.142E-13 -.533E-14   0.000E+00 0.222E-15 0.200E+01   0.860E-12 0.694E-12 0.187E-02

 POSITION                                       TOTAL-FORCE (eV/Angst)
      0.00000      1.03753      5.75345         0.000000      0.516858     -1.209962
      3.46681      5.89608      2.28664         0.000000     -0.516858     -1.209962
      1.63299      1.23805      4.61629        -0.609941     -0.327297      0.891414
      1.83381      5.69557      1.14949         0.609941      0.327297      0.891414
      5.09980      5.69557      1.14949        -0.609941      0.327297      0.891414
      5.30062      1.23805      4.61629         0.609941     -0.327297      0.891414
      0.00000      2.44521      0.24056         0.000000     -1.015240      3.431071
      3.46681      4.48840      3.70737         0.000000      1.015240      3.431071
      0.00000      6.16245      6.60704         0.000000     -1.510218     -2.897358
      3.46681      0.77116      3.14024         0.000000      1.510218     -2.897358
      0.00000      3.99070      5.94542         0.000000      1.005033     -0.579485
      3.46681      2.94292      2.47861         0.000000     -1.005033     -0.579485
      1.29874      5.45263      4.44658         1.172209      1.041580     -0.263546
      2.16806      1.48098      0.97977        -1.172209     -1.041580     -0.263546
      4.76555      1.48098      0.97977         1.172209     -1.041580     -0.263546
      5.63487      5.45263      4.44658        -1.172209      1.041580     -0.263546
    total drift:                               -0.000000      0.000000     -0.000104

  FREE ENERGIE OF THE ION-ELECTRON SYSTEM (eV)
  free  energy   TOTEN  =       -66.74029241 eV

  energy  without entropy=      -66.74029241  energy(sigma->0) =      -66.74029241

 BZINTS: Fermi energy:  3.082336; 76.000000 electrons
         Band energy:-742.078773;  BLOECHL correction:  0.000000