 vasp.5.4.4.18Apr17-6-g9f103f2a35 (build Feb 28 2020 14:15:47) complex

 executed on             LinuxIFC date 2022.04.28  03:22:52

 INCAR:
 POTCAR:    PAW P 26Mar2009
 POTCAR:    PAW S 27Mar2009
 POTCAR:    PAW Li_sv 10Sep2004
 POTCAR:    PAW P 26Mar2009
   VRHFIN =P : s2p3

   TITEL  = PAW P 26Mar2009
   POMASS =   30.974; ZVAL   =    5.000    mass and valenz
   ENMAX  =  255.155; ENMIN  =  191.366 eV

 POTCAR:    PAW S 27Mar2009
   VRHFIN =S : s2p4

   TITEL  = PAW S 27Mar2009
   POMASS =   32.066; ZVAL   =    6.000    mass and valenz
   ENMAX  =  258.602; ENMIN  =  193.952 eV

 POTCAR:    PAW Li_sv 10Sep2004
   VRHFIN =Li: 1s2s

   TITEL  = PAW Li_sv 10Sep2004
   POMASS =    7.010; ZVAL   =    3.000    mass and valenz
   ENMAX  =  498.387; ENMIN  =  373.790 eV

 Optimization of the real space projectors (new method)

 maximal supplied QI-value         = 19.84
 optimisation between [QCUT,QGAM] = [ 10.32, 20.83] = [ 29.81,121.55] Ry
 Optimized for a Real-space Cutoff    1.39 Angstroem

   l    n(q)    QCUT    max X(q) W(low)/X(q) W(high)/X(q)  e(spline)
   0      9    10.318   158.476    0.64E-04    0.80E-04    0.60E-07
   0      9    10.318   128.097    0.63E-04    0.79E-04    0.60E-07
   1      8    10.318    73.217    0.18E-03    0.19E-03    0.20E-06
   1      8    10.318    48.248    0.18E-03    0.19E-03    0.19E-06
 Optimization of the real space projectors (new method)

[...]

   l    n(q)    QCUT    max X(q) W(low)/X(q) W(high)/X(q)  e(spline)
   0      9    10.318   180.455    0.73E-04    0.81E-04    0.62E-07
   0      9    10.318   157.733    0.72E-04    0.81E-04    0.62E-07
   1      8    10.318    66.201    0.18E-03    0.20E-03    0.20E-06
   1      8    10.318    49.617    0.18E-03    0.20E-03    0.20E-06
 Optimization of the real space projectors (new method)

 maximal supplied QI-value         = 22.11
 optimisation between [QCUT,QGAM] = [ 10.39, 20.78] = [ 30.24,120.96] Ry
 Optimized for a Real-space Cutoff    1.20 Angstroem

   l    n(q)    QCUT    max X(q) W(low)/X(q) W(high)/X(q)  e(spline)
   0      7    10.392    10.443    0.77E-04    0.41E-05    0.30E-07
   0      7    10.392     8.514    0.20E-03    0.36E-04    0.67E-07
   1      7    10.392     5.406    0.20E-03    0.20E-03    0.12E-06
  PAW P 26Mar2009                       :
  PAW S 27Mar2009                       :
  PAW Li_sv 10Sep2004                   :

 POSCAR: Good luck
  positions in cartesian coordinates
 exchange correlation table for  LEXCH =        2
   RHO(1)=    0.500       N(1)  =     2000
   RHO(2)=  100.500       N(2)  =     4000

 ion  position               nearest neighbor table
   1  0.000  0.682  0.406-   7 2.00   9 2.00   3 2.00   6 2.00
   2  0.500  0.318  0.906-   8 2.00  10 2.00   4 2.00   5 2.00
   3  0.217  0.828  0.292-   1 2.00  14 2.34  13 2.39  12 2.48
   4  0.283  0.172  0.792-   2 2.00  13 2.34  14 2.39  11 2.48
   5  0.717  0.172  0.792-   2 2.00  16 2.34  15 2.39  11 2.48
   6  0.783  0.828  0.292-   1 2.00  15 2.34  16 2.39  12 2.48
   7  0.000  0.688  0.738-   1 2.00  14 2.33  15 2.33  11 2.36
   8  0.500  0.312  0.238-   2 2.00  13 2.33  16 2.33  12 2.36
   9  0.000  0.385  0.301-   1 2.00  13 2.31  16 2.31  11 2.46
  10  0.500  0.615  0.801-   2 2.00  14 2.31  15 2.31  12 2.46
  11  1.000  0.349  0.893-   7 2.36   9 2.46   5 2.48   4 2.48
  12  0.500  0.651  0.393-   8 2.36  10 2.46   6 2.48   3 2.48
  13  0.242  0.185  0.406-   9 2.31   8 2.33   4 2.34   3 2.39
  14  0.258  0.815  0.906-  10 2.31   7 2.33   3 2.34   4 2.39
  15  0.742  0.815  0.906-  10 2.31   7 2.33   6 2.34   5 2.39
  16  0.758  0.185  0.406-   9 2.31   8 2.33   5 2.34   6 2.39

  Warning from LATTYP: Monoclinic adjustement (A1->A3, A2->A1, A3->A2)!
  Warning from LATTYP: Got some problem with cell dimensions!
  Tried to take original basis but could not verify dimensions!
  LATTYP: Found a simple monoclinic cell.
 ALAT       =     9.8627181782
 B/A-ratio  =     0.6096973627
 C/A-ratio  =     1.6560347292
 COS(beta)  =    -0.9545784827

  Lattice vectors:

 A1 = (  -7.5165487725,  -6.3855073732,  -0.0000038272)
 A2 = (  -0.0000032372,   0.0000002114,  -6.0132732624)
 A3 = (  15.0330840259,   6.3854051321,   0.0000078782)

Analysis of symmetry for initial positions (statically):
 Subroutine PRICEL returns:
 Original cell was already a primitive cell.

 Routine SETGRP: Setting up the symmetry group for a
 simple monoclinic supercell.

 Subroutine GETGRP returns: Found  2 space group operations
 (whereof  1 operations were pure point group operations)
 out of a pool of  4 trial point group operations.

The static configuration has the point symmetry C_1 .
 The point group associated with its full space group is C_2 .

Analysis of symmetry for dynamics (positions and initial velocities):
 Subroutine PRICEL returns:
 Original cell was already a primitive cell.

 Routine SETGRP: Setting up the symmetry group for a
 simple monoclinic supercell.

 Subroutine GETGRP returns: Found  2 space group operations
 (whereof  1 operations were pure point group operations)
 out of a pool of  4 trial point group operations.

The dynamic configuration has the point symmetry C_1 .
 The point group associated with its full space group is C_2 .

 Subroutine INISYM returns: Found  2 space group operations
 (whereof  1 operations are pure point group operations),
 and found     1 'primitive' translations

 KPOINTS: Automatic mesh

Automatic generation of k-mesh.
Space group operators:
 irot       det(A)        alpha          n_x          n_y          n_z        tau_x        tau_y        tau_z
    1     1.000000     0.000000     1.000000     0.000000     0.000000     0.000000     0.000000     0.000000
    2     1.000000   180.000000    -0.000001     0.000000     1.000000     0.500000    -0.000000    -0.500000

 Subroutine IBZKPT returns following result:

 Found     16 irreducible k-points:

 Following reciprocal coordinates:
            Coordinates               Weight
  0.125000  0.125000  0.125000      4.000000
  0.375000  0.125000  0.125000      4.000000
 -0.375000  0.125000  0.125000      4.000000
 -0.125000  0.125000  0.125000      4.000000
  0.125000  0.375000  0.125000      4.000000
  0.375000  0.375000  0.125000      4.000000
 -0.375000  0.375000  0.125000      4.000000
 -0.125000  0.375000  0.125000      4.000000
  0.125000  0.125000  0.375000      4.000000
  0.375000  0.125000  0.375000      4.000000
 -0.375000  0.125000  0.375000      4.000000
 -0.125000  0.125000  0.375000      4.000000
  0.125000  0.375000  0.375000      4.000000
  0.375000  0.375000  0.375000      4.000000
 -0.375000  0.375000  0.375000      4.000000
 -0.125000  0.375000  0.375000      4.000000

 Following cartesian coordinates:
            Coordinates               Weight
  0.016630  0.019575  0.020787      4.000000
  0.049890  0.019575  0.020787      4.000000
 -0.049890  0.019575  0.020787      4.000000
 -0.016630  0.019575  0.020787      4.000000
  0.016631  0.058726  0.020787      4.000000
  0.049891  0.058726  0.020787      4.000000
 -0.049889  0.058726  0.020787      4.000000
 -0.016629  0.058726  0.020787      4.000000
  0.016630  0.019575  0.062362      4.000000
  0.049890  0.019575  0.062362      4.000000
 -0.049890  0.019575  0.062362      4.000000
 -0.016630  0.019575  0.062362      4.000000
  0.016631  0.058726  0.062362      4.000000
  0.049891  0.058726  0.062362      4.000000
 -0.049889  0.058726  0.062362      4.000000
 -0.016629  0.058726  0.062362      4.000000

 TETIRR: Found    172 inequivalent tetrahedra from      384

 SYSTEM =  unknown system
 POSCAR =  Good luck

 Startparameter for this run:
   NWRITE =      2    write-flag & timer
   PREC   = accura    normal or accurate (medium, high low for compatibility)
   ISTART =      0    job   : 0-new  1-cont  2-samecut
   ICHARG =      2    charge: 1-file 2-atom 10-const
   ISPIN  =      1    spin polarized calculation?
   LNONCOLLINEAR =      F non collinear calculations
   LSORBIT =      F    spin-orbit coupling
   INIWAV =      1    electr: 0-lowe 1-rand  2-diag
   LASPH  =      F    aspherical Exc in radial PAW
   METAGGA=      F    non-selfconsistent MetaGGA calc.

 Electronic Relaxation 1
   ENCUT  =  420.0 eV  30.87 Ry    5.56 a.u.  12.56 10.67 10.05*2*pi/ulx,y,z
   ENINI  =  420.0     initial cutoff
   ENAUG  =  628.9 eV  augmentation charge cutoff
   NELM   =    100;   NELMIN=  2; NELMDL= -5     # of ELM steps
   EDIFF  = 0.2E-04   stopping-criterion for ELM
   LREAL  =      T    real-space projection
   NLSPLINE    = F    spline interpolate recip. space projectors
   LCOMPAT=      F    compatible to vasp.4.4
   GGA_COMPAT  = T    GGA compatible to vasp.4.4-vasp.4.6
   LMAXPAW     = -100 max onsite density
   LMAXMIX     =    2 max onsite mixed and CHGCAR
   VOSKOWN=      0    Vosko Wilk Nusair interpolation
   ROPT   =   -0.00025  -0.00025  -0.00025
 Ionic relaxation
   EDIFFG = 0.2E-03   stopping-criterion for IOM
   NSW    =    100    number of steps for IOM
   NBLOCK =      1;   KBLOCK =    100    inner block; outer block
   IBRION =      2    ionic relax: 0-MD 1-quasi-New 2-CG
   NFREE  =      1    steps in history (QN), initial steepest desc. (CG)
   ISIF   =      3    stress and relaxation
   IWAVPR =     11    prediction:  0-non 1-charg 2-wave 3-comb
   ISYM   =      2    0-nonsym 1-usesym 2-fastsym
   LCORR  =      T    Harris-Foulkes like correction to forces

   POTIM  = 0.5000    time-step for ionic-motion
   TEIN   =    0.0    initial temperature
   TEBEG  =    0.0;   TEEND  =   0.0 temperature during run
   SMASS  =  -3.00    Nose mass-parameter (am)
   estimated Nose-frequenzy (Omega)   =  0.10E-29 period in steps =****** mass=  -0.129E-26a.u.
   SCALEE = 1.0000    scale energy and forces
   NPACO  =    256;   APACO  = 16.0  distance and # of slots for P.C.
   PSTRESS=    0.0 pullay stress

  Mass of Ions in am
   POMASS =  30.97 32.07  7.01
  Ionic Valenz
   ZVAL   =   5.00  6.00  3.00
  Atomic Wigner-Seitz radii
  virtual crystal weights
   VCA    =   1.00  1.00  1.00
   NELECT =      76.0000    total number of electrons
   NUPDOWN=      -1.0000    fix difference up-down

 DOS related values:
   EMIN   =  10.00;   EMAX   =-10.00  energy-range for DOS
   EFERMI =   0.00
   ISMEAR =    -5;   SIGMA  =   0.20  broadening in eV -4-tet -1-fermi 0-gaus

 Electronic relaxation 2 (details)
   IALGO  =     68    algorithm
   LDIAG  =      T    sub-space diagonalisation (order eigenvalues)
   LSUBROT=      F    optimize rotation matrix (better conditioning)
   TURBO    =      0    0=normal 1=particle mesh
   IRESTART =      0    0=no restart 2=restart with 2 vectors
   NREBOOT  =      0    no. of reboots
   NMIN     =      0    reboot dimension
   EREF     =   0.00    reference energy to select bands
   IMIX   =      4    mixing-type and parameters
     AMIX     =   0.40;   BMIX     =  1.00
     AMIX_MAG =   1.60;   BMIX_MAG =  1.00
     AMIN     =   0.10
     WC   =   100.;   INIMIX=   1;  MIXPRE=   1;  MAXMIX= -45

 Intra band minimization:
   WEIMIN = 0.0010     energy-eigenvalue tresh-hold
   EBREAK =  0.10E-06  absolut break condition
   DEPER  =   0.30     relativ break condition

   TIME   =   0.40     timestep for ELM

[...]
      2.12525      1.10106      4.76274        -0.665257     -0.403766     -0.117469
      5.39130      1.10102      4.76274         0.664255     -0.403250     -0.117118
      5.88352      5.28444      1.75611        -0.664256      0.403250     -0.117119
      0.00004      4.39122      4.43977        -0.000226      0.167322      0.791703
      3.75824      1.99434      1.43314         0.000227     -0.167322      0.791703
      0.00004      2.45655      1.80847        -0.000244     -0.639489     -0.474216
      3.75824      3.92900      4.81511         0.000243      0.639489     -0.474216
      7.51652      2.22571      5.37168         0.000064     -0.037437      0.071016
      3.75830      4.15974      2.36504        -0.000064      0.037437      0.071016
      1.82191      1.17864      2.44386         0.075010     -0.055528     -0.066430
      1.93637      5.20692      5.45050        -0.075010      0.055528     -0.066430
      5.58019      5.20687      5.45050         0.075063      0.055441     -0.066504
      5.69463      1.17858      2.44386        -0.075063     -0.055441     -0.066504
    total drift:                               -0.000008      0.000000     -0.001642

  FREE ENERGIE OF THE ION-ELECTRON SYSTEM (eV)
  free  energy   TOTEN  =       -77.28146465 eV

  energy  without entropy=      -77.28146465  energy(sigma->0) =      -77.28146465

[...]

 d Force = 0.7789278E-01[-0.947E-01, 0.250E+00]  d Energy = 0.6077172E-01 0.171E-01
 d Force = 0.2189271E+02[ 0.203E+02, 0.235E+02]  d Ewald  =-0.4988860E+01 0.269E+02

 Steepest descent step on ions:
 trial-energy change:   -0.060772  1 .order   -0.071892   -0.346912    0.203128
  (g-gl).g = 0.347E+00      g.g   = 0.347E+00  gl.gl    = 0.000E+00
 g(Force)  = 0.248E+00   g(Stress)= 0.989E-01 ortho     = 0.000E+00
 gamma     =   0.00000
 trial     =   1.00000
 opt step  =   0.60163  (harmonic =   0.63070) maximal distance =0.02297856
 next E    =   -77.383399   (d E  =  -0.10193)

[...]

 d Force = 0.1256442E-01[-0.121E-01, 0.372E-01]  d Energy = 0.4120894E-01-0.286E-01
 d Force =-0.8210689E+01[-0.845E+01,-0.797E+01]  d Ewald  = 0.2393435E+01-0.106E+02

[...]

 eigenvalue-minimisations  :   940
 total energy-change (2. order) : 0.4965702E-05  ( 0.2020458E-05)
 number of electron      75.9999990 magnetization
 augmentation part       -1.7653264 magnetization

[...]

 d Force = 0.1010496E-01[ 0.790E-02, 0.123E-01]  d Energy = 0.1648100E-01-0.638E-02
 d Force = 0.3157419E+01[ 0.312E+01, 0.320E+01]  d Ewald  = 0.9663815E+01-0.651E+01

 Conjugate gradient step on ions:
 trial-energy change:   -0.016481  1 .order   -0.016570   -0.020290   -0.012851
  (g-gl).g = 0.240E-01      g.g   = 0.222E-01  gl.gl    = 0.347E+00
 g(Force)  = 0.113E-01   g(Stress)= 0.109E-01 ortho     =-0.186E-02
 gamma     =   0.06928
 trial     =   0.92033
 opt step  =   2.99748  (harmonic =   2.51003) maximal distance =0.01771735
 next E    =   -77.413401   (d E  =  -0.02996)

[...]

 d Force = 0.6125352E-02[-0.552E-02, 0.178E-01]  d Energy = 0.9219469E-02-0.309E-02
 d Force = 0.6805559E+01[ 0.660E+01, 0.701E+01]  d Ewald  = 0.2164645E+02-0.148E+02

[...]

 d Force = 0.6521659E-03[-0.281E-03, 0.159E-02]  d Energy = 0.1480697E-02-0.829E-03
 d Force =-0.1910782E+01[-0.193E+01,-0.189E+01]  d Ewald  =-0.6154313E+01 0.424E+01

[...]

 d Force = 0.7828603E-03[ 0.588E-03, 0.978E-03]  d Energy = 0.7961121E-03-0.133E-04
 d Force = 0.3891706E-01[ 0.377E-01, 0.401E-01]  d Ewald  =-0.5765794E+00 0.615E+00

[...]

 d Force = 0.3872431E-03[ 0.228E-03, 0.547E-03]  d Energy = 0.4271416E-03-0.399E-04
 d Force =-0.2175045E+00[-0.218E+00,-0.217E+00]  d Ewald  =-0.1509656E+00-0.665E-01

 Conjugate gradient step on ions:
 trial-energy change:   -0.000427  1 .order   -0.000425   -0.000596   -0.000255
  (g-gl).g = 0.127E-02      g.g   = 0.120E-02  gl.gl    = 0.979E-03
 g(Force)  = 0.846E-03   g(Stress)= 0.359E-03 ortho     =-0.564E-04
 gamma     =   1.30075
 trial     =   0.52656
 opt step  =   0.92168  (harmonic =   0.92168) maximal distance =0.00255194
 next E    =   -77.412084   (d E  =  -0.00052)

[...]

 d Force = 0.1121327E-03[ 0.532E-04, 0.171E-03]  d Energy = 0.1021150E-03 0.100E-04
 d Force =-0.1644245E+00[-0.165E+00,-0.164E+00]  d Ewald  =-0.1145849E+00-0.498E-01

[...]

 d Force = 0.8816508E-04[ 0.735E-04, 0.103E-03]  d Energy = 0.1951396E-03-0.107E-03
 d Force =-0.3640841E-02[-0.358E-02,-0.370E-02]  d Ewald  = 0.1677451E+00-0.171E+00

 Conjugate gradient step on ions:
 trial-energy change:   -0.000195  1 .order   -0.000213   -0.000225   -0.000202
  (g-gl).g = 0.817E-04      g.g   = 0.362E-03  gl.gl    = 0.120E-02
 g(Force)  = 0.161E-03   g(Stress)= 0.201E-03 ortho     = 0.150E-03
 gamma     =   0.06786
 trial     =   0.60558
 opt step  =   2.42233  (harmonic =   5.85154) maximal distance =0.00173328
 next E    =   -77.413180   (d E  =  -0.00109)

[...]

 d Force = 0.6759460E-04[ 0.127E-04, 0.122E-03]  d Energy = 0.8715381E-04-0.196E-04
 d Force = 0.1586008E+00[ 0.158E+00, 0.159E+00]  d Ewald  = 0.8677855E-03 0.158E+00

[...]

 Conjugate gradient step on ions:
 trial-energy change:   -0.000088  1 .order   -0.000094   -0.000104   -0.000084
  (g-gl).g = 0.166E-03      g.g   = 0.164E-03  gl.gl    = 0.400E-03
 g(Force)  = 0.157E-03   g(Stress)= 0.677E-05 ortho     = 0.513E-04
 gamma     =   0.41624
 trial     =   0.56151
 opt step  =   2.24605  (harmonic =   2.85619) maximal distance =0.00230804
 next E    =   -77.413074   (d E  =  -0.00026)

[...]

WARNING in EDDRMM: call to ZHEGV failed, returncode =   6  3     10
WARNING in EDDRMM: call to ZHEGV failed, returncode =   6  3     10
 BZINTS: Fermi energy:  2.185273; 76.000000 electrons
         Band energy:-670.492619;  BLOECHL correction:  0.000000

[...]

 d Force = 0.1908754E-03[ 0.161E-03, 0.220E-03]  d Energy = 0.1861237E-03 0.475E-05
 d Force = 0.6147884E-01[ 0.614E-01, 0.615E-01]  d Ewald  =-0.5423770E-01 0.116E+00

[...]

 eigenvalue-minimisations  :  1048
 total energy-change (2. order) : 0.1323981E-04  ( 0.1725507E-06)
 number of electron      76.0000006 magnetization
 augmentation part       -1.7849186 magnetization

[...]

 d Force = 0.6318408E-04[ 0.374E-04, 0.890E-04]  d Energy = 0.8570976E-04-0.225E-04
 d Force =-0.1502780E+00[-0.150E+00,-0.150E+00]  d Ewald  = 0.2248784E+00-0.375E+00

 Steepest descent step on ions:
 trial-energy change:   -0.000086  1 .order   -0.000090   -0.000112   -0.000068
  (g-gl).g = 0.753E-04      g.g   = 0.124E-03  gl.gl    = 0.164E-03
 g(Force)  = 0.991E-04   g(Stress)= 0.251E-04 ortho     = 0.863E-04
 gamma     =   0.00000
 trial     =   0.89842
 opt step  =   2.30282  (harmonic =   2.30282) maximal distance =0.00280246
 next E    =   -77.413226   (d E  =  -0.00014)

 real space projection operators:
  max/ min on nodes  :        230.45        156.28

[...]

 eigenvalue-minimisations  :  1976
 total energy-change (2. order) :-0.3526930E-04  (-0.1010224E-03)
 number of electron      76.0000008 magnetization
 augmentation part       -1.7863111 magnetization

 Broyden mixing:
  rms(total) = 0.48527E-02    rms(broyden)= 0.48510E-02
  rms(prec ) = 0.55138E-02
  weight for this iteration     100.00

 eigenvalues of (default mixing * dielectric matrix)
  average eigenvalue GAMMA=   0.9275
  0.9275

[...]

--------------------------------------- Iteration     18(   3)  ---------------------------------------

 BZINTS: Fermi energy:  2.196652; 76.000000 electrons
         Band energy:-669.946479;  BLOECHL correction:  0.000000

 eigenvalue-minimisations  :  1884
 total energy-change (2. order) : 0.1330392E-04  (-0.1689758E-04)
 number of electron      76.0000008 magnetization
 augmentation part       -1.7863111 magnetization

 Free energy of the ion-electron system (eV)
  alpha Z        PSCENC =        68.45114304
  Ewald energy   TEWEN  =     -2731.39027835
  -Hartree energ DENC   =      -649.22651280
  -exchange      EXHF   =         0.00000000
  -V(xc)+E(xc)   XCENC  =       185.57208933
  PAW double counting   =      7359.41154152    -7409.37245658
  entropy T*S    EENTRO =         0.00000000
  eigenvalues    EBANDS =      -669.94647886
  atomic energy  EATOM  =      3769.08782378
  Solvation  Ediel_sol  =         0.00000000
  free energy    TOTEN  =       -77.41312892 eV

  energy without entropy =      -77.41312892  energy(sigma->0) =      -77.41312892

 average (electrostatic) potential at core
  the test charge radii are     0.9587  0.9698  0.7079
  (the norm of the test charge is              1.0000)
       1 -88.3976       2 -88.3976       3 -88.2973       4 -88.2973       5 -88.2973
       6 -88.2973       7 -88.2729       8 -88.2729       9 -88.2984      10 -88.2984
      11 -63.8574      12 -63.8574      13 -63.5165      14 -63.5165      15 -63.5165
      16 -63.5165

 E-fermi :   2.1967     XC(G=0):  -9.1060     alpha+bet :-10.4766

[...]

 k-point    16 :      -0.1250    0.3750    0.3750
  band No.  band energies     occupation
      1     -41.0220      2.00000
      2     -41.0220      2.00000
      3     -40.6985      2.00000
      4     -40.6983      2.00000
      5     -40.6977      2.00000
      6     -40.6974      2.00000
      7     -12.5331      2.00000
      8     -12.5013      2.00000
      9      -9.6366      2.00000
     10      -9.5817      2.00000
     11      -9.5093      2.00000
     12      -9.4700      2.00000
     13      -9.4372      2.00000
     14      -9.4230      2.00000
     15      -5.2501      2.00000
     16      -5.1589      2.00000
     17      -2.3460      2.00000
     18      -2.2915      2.00000
     19      -2.2248      2.00000
     20      -2.1867      2.00000
     21      -2.0249      2.00000
     22      -1.9834      2.00000
     23      -0.2054      2.00000
     24      -0.1420      2.00000
     25      -0.0099      2.00000
     26       0.0595      2.00000
     27       0.3779      2.00000
     28       0.4351      2.00000
     29       0.8905      2.00000
     30       0.9504      2.00000
     31       1.0253      2.00000
     32       1.2579      2.00000
     33       1.5701      2.00000
     34       1.7078      2.00000
     35       1.7486      2.00000
     36       1.8701      2.00000
     37       2.0151      2.00000
     38       2.0597      2.00000
     39       5.0742      0.00000
     40       5.2850      0.00000
     41       6.3467      0.00000
     42       6.4646      0.00000
     43       6.6340      0.00000
     44       6.8070      0.00000
     45       6.8751      0.00000
     46       6.9626      0.00000
     47       8.2036      0.00000
     48       8.4606      0.00000

 soft charge-density along one line, spin component           1
         0         1         2         3         4         5         6         7         8         9
 total charge-density along one line

------------------------ aborting loop because EDIFF is reached ----------------------------------------

  FORCE on cell =-STRESS in cart. coord.  units (eV):
  Direction    XX          YY          ZZ          XY          YZ          ZX
  Alpha Z    68.45114    68.45114    68.45114
  Ewald    -919.62427  -935.91238  -875.85928    -0.00300    -0.00001     0.00010
  Hartree   209.54313   199.46869   240.12251    -0.00094    -0.00002     0.00019
  E(xc)    -277.34152  -277.30876  -277.30600     0.00001     0.00000    -0.00000
  Local    -639.22492  -611.55733  -712.11070     0.00373     0.00007    -0.00099
  n-local   602.52663   601.64709   601.76222    -0.00025    -0.05674    -0.00014
  augment   -44.96048   -44.78955   -44.77661     0.00004     0.00000    -0.00005
  Kinetic  1000.65834  1000.11377   999.84535    -0.00017    -0.42300    -0.00002
  Fock        0.00000     0.00000     0.00000     0.00000     0.00000     0.00000
  Total       0.02805     0.11269     0.12864    -0.00059    -0.00000     0.00000
  in kB       0.15588     0.62629     0.71494    -0.00327    -0.00000     0.00000

 VOLUME and BASIS-vectors are now :
  energy-cutoff  :      420.00
  volume of cell :      288.28
      direct lattice vectors                 reciprocal lattice vectors
     7.516133029 -0.000055829  0.000004042     0.133047140 -0.000001104 -0.000000072
     0.000052993  6.384004260 -0.000000223     0.000001164  0.156641499  0.000000006
     0.000003233 -0.000000211  6.007916184    -0.000000090  0.000000006  0.166447062

  length of vectors
     7.516133029  6.384004260  6.007916184     0.133047140  0.156641499  0.166447062

 FORCES acting on ions
    electron-ion (+dipol)            ewald-force                    non-local-force                 convergence-correction
   -.464E-03 -.320E+01 0.131E+00   0.439E-03 0.313E+01 -.905E-01   0.204E-03 0.907E-01 -.538E-01   -.356E-04 0.671E-03 -.191E-02
   0.615E-03 0.320E+01 0.131E+00   -.694E-03 -.313E+01 -.905E-01   -.204E-03 -.907E-01 -.538E-01   0.356E-04 -.671E-03 -.191E-02
   -.572E+02 -.338E+02 0.178E+02   0.591E+02 0.354E+02 -.186E+02   -.185E+01 -.160E+01 0.895E+00   0.589E-05 -.546E-02 -.343E-02
   0.572E+02 0.338E+02 0.178E+02   -.591E+02 -.354E+02 -.186E+02   0.185E+01 0.160E+01 0.895E+00   -.589E-05 0.546E-02 -.343E-02
   -.572E+02 0.338E+02 0.178E+02   0.591E+02 -.354E+02 -.186E+02   -.185E+01 0.160E+01 0.895E+00   0.422E-04 0.541E-02 -.344E-02
   0.572E+02 -.338E+02 0.178E+02   -.591E+02 0.354E+02 -.186E+02   0.185E+01 -.160E+01 0.895E+00   -.422E-04 -.541E-02 -.344E-02
   0.302E-03 -.976E+01 -.565E+02   -.146E-03 0.994E+01 0.593E+02   -.778E-04 -.170E+00 -.277E+01   -.684E-04 -.128E-02 0.667E-02
   -.423E-03 0.976E+01 -.565E+02   0.355E-03 -.994E+01 0.593E+02   0.748E-04 0.170E+00 -.277E+01   0.684E-04 0.128E-02 0.667E-02
   0.908E-03 0.629E+02 0.241E+02   -.931E-03 -.655E+02 -.250E+02   0.304E-05 0.251E+01 0.944E+00   0.286E-05 -.137E-01 0.526E-02
   -.931E-03 -.629E+02 0.241E+02   0.946E-03 0.655E+02 -.250E+02   -.202E-05 -.251E+01 0.944E+00   -.288E-05 0.137E-01 0.526E-02
   0.789E-03 0.147E+02 0.136E+01   -.730E-03 -.138E+02 -.113E+01   -.728E-04 -.848E+00 -.231E+00   0.156E-05 -.259E-04 -.173E-02
   -.746E-03 -.147E+02 0.136E+01   0.660E-03 0.138E+02 -.113E+01   0.725E-04 0.848E+00 -.231E+00   -.158E-05 0.259E-04 -.173E-02
   0.359E+01 0.468E+01 -.223E+01   -.338E+01 -.454E+01 0.214E+01   -.203E+00 -.147E+00 0.891E-01   -.194E-02 0.480E-02 -.561E-03
   -.359E+01 -.468E+01 -.223E+01   0.338E+01 0.454E+01 0.214E+01   0.203E+00 0.147E+00 0.892E-01   0.194E-02 -.480E-02 -.561E-03
   0.359E+01 -.468E+01 -.223E+01   -.338E+01 0.454E+01 0.214E+01   -.203E+00 0.147E+00 0.892E-01   -.188E-02 -.475E-02 -.555E-03
   -.359E+01 0.468E+01 -.223E+01   0.338E+01 -.454E+01 0.214E+01   0.203E+00 -.147E+00 0.892E-01   0.188E-02 0.475E-02 -.555E-03
   -.113E-04 0.564E-06 0.288E+00   -.355E-13 -.355E-13 0.120E-13   -.158E-06 0.103E-07 -.293E+00   -.422E-07 0.564E-10 0.587E-03

 POSITION                                       TOTAL-FORCE (eV/Angst)
      0.00004      4.34922      2.43781         0.000196      0.024386     -0.014504
      3.75808      2.03475      5.44177        -0.000196     -0.024386     -0.014504
      1.66926      5.30403      1.76935         0.010922      0.011936     -0.000675
      2.08886      1.07994      4.77331        -0.010922     -0.011936     -0.000675
      5.42727      1.07991      4.77330         0.011114     -0.012025     -0.000704
      5.84699      5.30401      1.76934        -0.011114      0.012025     -0.000704
      0.00005      4.40245      4.47190        -0.000033      0.002733      0.033534
      3.75808      1.98152      1.46794         0.000033     -0.002733      0.033534
      0.00002      2.44047      1.74732        -0.000013     -0.019596     -0.014484
      3.75810      3.94350      4.75128         0.000013      0.019596     -0.014484
      7.51614      2.22438      5.36595         0.000001     -0.000508     -0.005954
      3.75812      4.15954      2.36199        -0.000001      0.000508     -0.005954
      1.82363      1.17333      2.43915        -0.003109      0.002876      0.001403
      1.93449      5.21064      5.44311         0.003109     -0.002876      0.001403
      5.58173      5.21061      5.44310        -0.003087     -0.002897      0.001384
      5.69252      1.17331      2.43915         0.003087      0.002897      0.001384
    total drift:                               -0.000011      0.000001     -0.004412

  FREE ENERGIE OF THE ION-ELECTRON SYSTEM (eV)
  free  energy   TOTEN  =       -77.41312892 eV

  energy  without entropy=      -77.41312892  energy(sigma->0) =      -78.41312892

 d Force =-0.4101281E-05[-0.666E-04, 0.584E-04]  d Energy =-0.3994205E-04 0.358E-04
 d Force =-0.2356608E+00[-0.236E+00,-0.235E+00]  d Ewald  = 0.3508701E+00-0.587E+00

 reached required accuracy - stopping structural energy minimisation
 BZINTS: Fermi energy:  2.196652; 76.000000 electrons
         Band energy:-669.946479;  BLOECHL correction:  0.000000